NAME : jam20
COMMENT : Generated by Jaemin Kim (20211061)
TYPE : TSP
DIMENSION : 20
EDGE_WEIGHT_TYPE : EUC_2D
NODE_COORD_SECTION
18 65 268
3 182 253
9 182 31
1 150 200
4 234 268
2 154 218
20 145 218
7 287 131
12 145 -5
14 65 78
13 117 31
6 310 190
19 117 253
10 154 -5
5 287 243
15 12 131
8 234 78
11 150 -20
17 12 243
16 -10 189
EOF
